!B3LYP D3BJ def2-TZVP OPT FREQ

*xyz 0 1
  C      -0.403458      3.409703      0.413408
  C      -0.562839      2.568463     -0.687907
  C       0.200787      1.397094     -0.789797
  C       1.175256      1.108817      0.179928
  C       1.352703      1.974286      1.258035
  C       0.555296      3.116824      1.388812
  C      -1.175263     -1.108821      0.179939
  C      -0.200783     -1.397082     -0.789781
  C       0.562842     -2.568458     -0.687898
  H       1.281693     -2.796536     -1.477725
  C       0.403457     -3.409706      0.413414
  C      -0.555293     -3.116826      1.388818
  C      -1.352703     -1.974293      1.258043
  H      -1.018304      4.308803      0.502243
  H      -1.281691      2.796545     -1.477729
  H       2.117768      1.752290      2.006227
  H       0.691942      3.785846      2.241684
  H       1.018300     -4.308811      0.502233
  H      -0.691932     -3.785847      2.241693
  H      -2.117769     -1.752300      2.006232
  H       1.792153      0.214901      0.080332
  H      -1.792172     -0.214916      0.080331
  N       0.044854      0.620044     -1.976781
  N      -0.044843     -0.620022     -1.976790
*
