!B3LYP D3BJ def2-TZVP CPCM(ACETONITRILE)
%TDDFT
   NROOTS    20
   TDA       False
   Triplets  False
END
* XYZFILE 0 1 td_E-AB_ACN.xyz
