!B3LYP D3BJ def2-TZVP CPCM(ACETONITRILE)
%TDDFT
   NROOTS    20
   TDA       False
   Triplets  False
END
*xyz 0 1
  C          -0.62168951413888      3.37080836607818      0.33183359069715
  C          -0.64272336133659      2.47253150899206     -0.72855132768117
  C           0.28072282583927      1.43031507413855     -0.77265740624673
  C           1.26474512909421      1.32629423933852      0.21329029279704
  C           1.29436146668386      2.24245678228135      1.25430582990985
  C           0.34428217810296      3.25919548915271      1.32706514896501
  C          -0.82905982848393     -1.03042093828326      0.36835469596747
  C          -0.00530029746668     -1.41507499016750     -0.70275389555469
  C           0.50031526194256     -2.72168917660339     -0.70338775400240
  H           1.09301461061964     -3.04421101121741     -1.55044092280397
  C           0.28276598414955     -3.58457438440109      0.34828260052888
  C          -0.51666666386001     -3.19314184272331      1.44940570220065
  C          -1.09125357379960     -1.89663569582438      1.40513583035679
  H          -1.35621957768639      4.16518336246519      0.37430613635420
  H          -1.38123935468844      2.56040460259188     -1.51541755280228
  H           2.06089501629111      2.16182199280594      2.01491909010392
  H           0.36658320449078      3.96675453714977      2.14576281684985
  H           0.71591368285438     -4.57222639763107      0.31332249203307
  H          -1.75424280373390     -1.57247095489716      2.19256502257974
  H           1.99635313574798      0.53106185056052      0.15945598272600
  H          -1.29868793494761     -0.05911821307499      0.37768844077641
  N           0.30450951415927      0.58539599993302     -1.92318476507002
  N           0.27111444651326     -0.66471243125543     -1.86249298703684
  N          -0.74327196248795     -4.03046005448267      2.49566143037748
  C          -1.59689671066196     -3.61838523906245      3.59808817756721
  H          -1.61176091390187     -4.40678771047553      4.34460528427843
  H          -1.22258702854579     -2.70614682922241      4.06994466054105
  H          -2.62437604435137     -3.43519765137866      3.26813548740040
  C          -0.18954017697799     -5.37447528624840      2.49175048653611
  H          -0.47116628533908     -5.87445467141906      3.41362849761674
  H          -0.56731826873409     -5.96333996703718      1.65023762716344
  H           0.90207479465330     -5.35464625008234      2.43037984687120
*
