!B3LYP D3BJ def2-SVP def2/J
%TDDFT
   NROOTS    20
   TDA       False
   Triplets  False
END
* XYZFILE 0 1 td_ss_Z-AB_gas.xyz
