!B3LYP D3BJ def2-SVP def2/J OPT FREQ

*xyz 0 1
 C                 -3.95417424   -1.06184321    0.00000000
 C                 -2.61922106   -1.30448381    0.00000000
 C                 -1.71369455   -0.23700520    0.00000000
 C                 -2.19498310    1.07574076    0.00000000
 C                 -3.57590848    1.30494359    0.00000000
 C                 -4.43767139    0.25692683    0.00000000
 C                  2.19498310   -1.07574076    0.00000000
 C                  1.71369455    0.23700520    0.00000000
 C                  2.61922106    1.30448381    0.00000000
 H                  2.25860878    2.31188579    0.00000000
 C                  3.95417424    1.06184321    0.00000000
 C                  4.43767139   -0.25692683    0.00000000
 C                  3.57590848   -1.30494359    0.00000000
 H                 -4.64315281   -1.88050587    0.00000000
 H                 -2.25860878   -2.31188579    0.00000000
 H                 -3.95190983    2.30670354    0.00000000
 H                 -5.49253815    0.43624811    0.00000000
 H                  4.64315281    1.88050587    0.00000000
 H                  5.49253815   -0.43624811    0.00000000
 H                  3.95190983   -2.30670354    0.00000000
 H                 -1.51229505    1.89965642    0.00000000
 H                  1.51229505   -1.89965642    0.00000000
 N                 -0.39666968   -0.47128455    0.00000000
 N                  0.39666968    0.47128455    0.00000000
*
