!B3LYP D3BJ def2-TZVP
%TDDFT
   NROOTS    20
   TDA       False
   Triplets  False
END
* XYZFILE 1 1 td_E-ABH+_gas.xyz
